114
0 47 7 10 66 3 108 82 43 23 
42 86 17 112 97 29 77 30 111 80 
70 75 36 50 74 5 45 16 37 27 
79 34 113 53 89 48 109 98 95 83 
61 68 12 15 2 25 64 24 40 4 
81 44 84 99 32 8 69 103 94 107 
55 106 73 65 101 21 92 110 72 20 
33 46 39 35 13 62 6 41 58 60 
31 9 57 105 54 85 1 19 11 88 
67 90 28 56 38 18 96 76 49 52 
104 87 26 51 71 63 22 59 14 100 
91 93 78 102 
